! Rohde & Schwarz Vector Network Analyzer
! Rohde-Schwarz,ZNA43-4Port,1332450044102361,3.10
! 
! Port Assignments:
! Nominal Port -> Actual Test Port
! --------------------------------
!   1 -> 1

! Created: GMT 2026-06-02 10:20:07

# Hz S RI R 50

! freq[Hz]               S11[Re]                  S11[Im]                  
5.000000000000000e+07    -3.739384229561520e-01   8.469773027194556e-01    
1.000000000000000e+08    5.994662638102007e-01    6.999068929683306e-01    
1.500000000000000e+08    8.867304123239483e-01    -2.525534428783651e-01   
2.000000000000000e+08    8.564945916040317e-02    -9.103623027449093e-01   
2.500000000000000e+08    -8.113597524625304e-01   -3.855736472982536e-01   
3.000000000000000e+08    -6.720464324617790e-01   5.775927516748246e-01    
3.500000000000000e+08    1.680320767595277e-01    8.666854583772216e-01    
4.000000000000000e+08    8.203448105438418e-01    3.064618335088246e-01    
4.500000000000000e+08    5.998593715046273e-01    -5.573572081720626e-01   
5.000000000000000e+08    -2.891283732713921e-01   -7.526440942772480e-01   
5.500000000000000e+08    -7.886675795701318e-01   1.038296698312235e-01    
6.000000000000000e+08    -2.188071008075453e-01   8.061012527947435e-01    
6.500000000000000e+08    5.644495310958828e-01    6.315467222474640e-01    
7.000000000000000e+08    8.525646937976301e-01    -7.810296621092792e-02   
7.500000000000000e+08    3.354804322687661e-01    -7.501376557128389e-01   
8.000000000000000e+08    -6.196344301385892e-01   -4.500321800086736e-01   
8.500000000000000e+08    -4.793661033652614e-01   5.909667618150813e-01    
9.000000000000000e+08    3.758065405618293e-01    5.422271909062352e-01    
9.500000000000000e+08    8.153709717690947e-01    1.814951907243717e-01    
1.000000000000000e+09    6.133383854365723e-01    -5.442857127018627e-01   
1.050000000000000e+09    -2.489540989051499e-01   -6.784679046360556e-01   
1.100000000000000e+09    -4.485824905577746e-01   3.589134392024100e-01    
1.150000000000000e+09    1.820478573759973e-01    -4.270415253811209e-02   
1.200000000000000e+09    6.328300634375965e-01    3.849541306317369e-01    
1.250000000000000e+09    6.503147824981387e-01    -4.216516083955310e-01   
1.300000000000000e+09    -1.072690543122778e-01   -5.792298441835777e-01   
1.350000000000000e+09    9.134861725400362e-02    1.930871964514434e-01    
1.400000000000000e+09    5.502160461703263e-02    -5.138069461926719e-01   
1.450000000000000e+09    6.173608380493571e-02    4.877326506608240e-01    
1.500000000000000e+09    4.840691912065276e-01    -3.225311424395632e-01   
1.550000000000000e+09    2.298642633686009e-02    -1.427830261326857e-01   
1.600000000000000e+09    4.633606928713974e-01    -2.837912063418488e-01   
1.650000000000000e+09    6.190291261725444e-02    -7.180034764537772e-01   
1.700000000000000e+09    -5.663339629767340e-01   -2.098037993980928e-01   
1.750000000000000e+09    -1.335482473997405e-01   3.949106486769396e-02    
1.800000000000000e+09    4.144945271063743e-01    1.878582419674013e-01    
1.850000000000000e+09    5.398360990276059e-01    -4.810207861488314e-01   
1.900000000000000e+09    8.880821273887754e-02    -8.037505542494163e-01   
1.950000000000000e+09    -4.254174981573518e-01   -6.926113788660475e-01   
2.000000000000000e+09    -6.978118117232300e-01   -1.211956373087278e-01   
2.050000000000000e+09    -1.266000479840881e-01   5.208451495205317e-01    
2.100000000000000e+09    6.236909106578629e-01    -9.530576789981407e-02   
2.150000000000000e+09    2.566861498947762e-01    -7.422919253281440e-01   
2.200000000000000e+09    -2.780202237617984e-01   -7.789404133811383e-01   
2.250000000000000e+09    -6.398661013192855e-01   -5.419524710200218e-01   
2.300000000000000e+09    -7.789851109257437e-01   1.211697622956732e-02    
2.350000000000000e+09    -2.012327986840955e-01   5.507363194721885e-01    
2.400000000000000e+09    5.272831899507855e-01    -1.274915159368515e-01   
2.450000000000000e+09    -1.398772110076280e-02   -7.194748792053729e-01   
2.500000000000000e+09    -3.621413607873118e-01   -5.580103867773537e-01   
2.550000000000000e+09    -7.676222331508012e-01   -3.506277401558432e-01   
2.600000000000000e+09    -7.744021399850262e-01   1.496196614310847e-01    
2.650000000000000e+09    -2.397022328656211e-01   5.090008047671370e-01    
2.700000000000000e+09    1.886926636331400e-01    -1.490800890878403e-01   
2.750000000000000e+09    -2.703945029958040e-01   -1.707390071735256e-01   
2.800000000000000e+09    -4.130026005210194e-01   -5.463913768917407e-01   
2.850000000000000e+09    -7.682930524981874e-01   -6.582861804007954e-02   
2.900000000000000e+09    -5.068737303566908e-01   2.711814908660592e-01    
2.950000000000000e+09    -4.082779099797066e-01   6.590658136796033e-02    
3.000000000000000e+09    -5.118621265687006e-01   3.516290158979248e-01    
3.050000000000000e+09    1.066173969414011e-01    4.389406545777489e-01    
3.100000000000000e+09    -3.644085735302341e-01   -2.770039336188891e-01   
3.150000000000000e+09    -2.855647308900701e-01   1.401137870820230e-02    
3.200000000000000e+09    -6.493529375516228e-01   -1.684167103905869e-02   
3.250000000000000e+09    -6.908701677675668e-01   4.001274527715037e-01    
3.300000000000000e+09    -4.121989734933793e-01   6.940986504827626e-01    
3.350000000000000e+09    1.431676267529905e-01    6.456382096383453e-01    
3.400000000000000e+09    2.932957151387113e-02    2.402569853543099e-01    
3.450000000000000e+09    -1.491477750105060e-01   -2.588625236477473e-01   
3.500000000000000e+09    -6.883355190998369e-01   1.554961013594151e-01    
3.550000000000000e+09    -5.530532320561083e-01   6.051795411215990e-01    
3.600000000000000e+09    -2.183020631977890e-01   8.059396677086331e-01    
3.650000000000000e+09    2.165746467606119e-01    6.735371212588479e-01    
3.700000000000000e+09    3.477411130902799e-01    4.358179954792182e-01    
3.750000000000000e+09    7.878636022802116e-02    -2.092420641496785e-01   
3.800000000000000e+09    -5.494402589425630e-01   2.386641670861223e-01    
3.850000000000000e+09    -3.215622485265543e-01   7.114009542416925e-01    
3.900000000000000e+09    6.790387039036785e-02    8.049777973821818e-01    
3.950000000000000e+09    2.898370033738186e-01    5.415822023402354e-01    
4.000000000000000e+09    4.468516328102011e-01    3.457745097625007e-01    
4.050000000000000e+09    7.165401050553781e-02    -3.207723087348445e-02   
4.100000000000000e+09    -2.236168309387714e-01   4.535375007302918e-01    
4.150000000000000e+09    1.406655078266634e-01    6.966032566312076e-01    
4.200000000000000e+09    4.579405900954397e-01    4.523825607293569e-01    
4.250000000000000e+09    3.078042836323722e-01    2.706311330993957e-01    
4.300000000000000e+09    1.985798188870426e-01    2.520262755506611e-01    
4.350000000000000e+09    1.544084094633833e-01    4.067793623199957e-01    
4.400000000000000e+09    3.786577515652355e-01    5.365409930826450e-01    
4.450000000000000e+09    6.445068135533848e-01    2.650509806898445e-01    
4.500000000000000e+09    3.806712817842346e-01    -1.033663243684598e-01   
4.550000000000000e+09    4.934706918075445e-02    2.063675218533489e-01    
4.600000000000000e+09    2.738823185310043e-01    3.920012024213486e-01    
4.650000000000000e+09    4.363265839859901e-01    4.738602840588090e-01    
4.700000000000000e+09    7.380072324693113e-01    2.453058760731487e-01    
4.750000000000000e+09    6.889165271737215e-01    -1.344498920162247e-01   
4.800000000000000e+09    2.540420540405757e-01    -2.712310091510787e-01   
4.850000000000000e+09    1.688625945613594e-01    1.101499459329350e-01    
4.900000000000000e+09    1.816688928584606e-01    2.226990693437171e-01    
4.950000000000000e+09    6.363028554651823e-01    3.121819283761235e-01    
5.000000000000000e+09    7.469403512653709e-01    -7.021848089707597e-02   
5.050000000000000e+09    5.143358740519218e-01    -3.187896885092293e-01   
5.100000000000000e+09    3.594413804846059e-01    -2.163041552725848e-01   
5.150000000000000e+09    1.967609956878737e-01    -3.425800420833450e-01   
5.200000000000000e+09    9.554594166096417e-02    2.516640305310092e-01    
5.250000000000000e+09    6.450402605754294e-01    4.229304913781653e-02    
5.300000000000000e+09    5.107848181939074e-01    -2.384314766741042e-01   
5.350000000000000e+09    5.680670486388083e-01    -2.761326473734260e-01   
5.400000000000000e+09    4.016303762383137e-01    -5.767873126582090e-01   
5.450000000000000e+09    -1.088764034422552e-01   -4.968261181606736e-01   
5.500000000000000e+09    1.099052982223872e-01    1.700571017784259e-01    
5.550000000000000e+09    3.482551467734419e-01    -9.993102674668566e-02   
5.600000000000000e+09    5.944643201223152e-01    -1.942859324445345e-01   
5.650000000000000e+09    4.922755456381972e-01    -5.786785097208595e-01   
5.700000000000000e+09    1.256162132507695e-01    -7.297592478664601e-01   
5.750000000000000e+09    -3.062927432202289e-01   -4.395626037862266e-01   
5.800000000000000e+09    4.232379978970553e-04    -2.436598002289888e-02   
5.850000000000000e+09    3.410119114021483e-01    8.539029370574490e-02    
5.900000000000000e+09    5.504405477752450e-01    -4.099054742815717e-01   
5.950000000000000e+09    2.644048172935190e-01    -7.223838552317846e-01   
6.000000000000000e+09    -1.403837605582266e-01   -7.342933610353473e-01   
6.050000000000000e+09    -4.229092561440212e-01   -3.453469692303509e-01   
6.100000000000000e+09    -3.055039261073428e-01   5.101176636945284e-02    
6.150000000000000e+09    3.764300462476823e-01    1.074316739359034e-01    
6.200000000000000e+09    4.425560688778016e-01    -5.021189034625916e-01   
6.250000000000000e+09    6.694944998043847e-02    -7.582076436193145e-01   
6.300000000000000e+09    -3.324667396405602e-01   -6.731984406730367e-01   
6.350000000000000e+09    -5.176905447284613e-01   -3.323370175617963e-01   
6.400000000000000e+09    -4.422324718884109e-01   1.653396174426252e-01    
6.450000000000000e+09    2.792314709100261e-01    2.093507552112507e-01    
6.500000000000000e+09    3.861688399314925e-01    -4.560152223671640e-01   
6.550000000000000e+09    -4.552990727347914e-02   -7.222295801475510e-01   
6.600000000000000e+09    -4.434437666228929e-01   -5.802817298222567e-01   
6.650000000000000e+09    -6.222480714431213e-01   -2.836837807200788e-01   
6.700000000000000e+09    -5.433554802413968e-01   2.184022519526250e-01    
6.750000000000000e+09    1.222420847691400e-01    3.782173027793578e-01    
6.800000000000000e+09    4.089046986715968e-01    -2.926733617185499e-01   
6.850000000000000e+09    -4.627713808347457e-02   -6.561764970574070e-01   
6.900000000000000e+09    -4.369978598105342e-01   -4.942510412433732e-01   
6.950000000000000e+09    -6.577343985607063e-01   -2.168849100788408e-01   
7.000000000000000e+09    -5.421629348190367e-01   2.516391670865617e-01    
7.050000000000000e+09    3.287457827329641e-02    3.624270898441628e-01    
7.100000000000000e+09    2.322218644801714e-01    -2.008607404864548e-01   
7.150000000000000e+09    -1.605367177736169e-01   -3.646664515573388e-01   
7.200000000000000e+09    -2.659528357349078e-01   -3.240836252794622e-01   
7.250000000000000e+09    -4.276697462112986e-01   -7.428493420965138e-02   
7.300000000000000e+09    -3.093685982613190e-01   -6.978806228943656e-02   
7.350000000000000e+09    -4.540516151232110e-01   6.190631782173939e-02    
7.400000000000000e+09    -2.251415425641328e-01   3.686957058253288e-01    
7.450000000000000e+09    2.403933839402511e-01    1.540732646754518e-01    
7.500000000000000e+09    1.648721897067743e-01    -3.261264921339594e-01   
7.550000000000000e+09    -3.025576341000907e-01   -4.962767228635193e-01   
7.600000000000000e+09    -6.483898289125727e-01   -1.841348696631579e-01   
7.650000000000000e+09    -6.310880068121762e-01   2.564561754806573e-01    
7.700000000000000e+09    -2.574366017734449e-01   5.658170054276245e-01    
7.750000000000000e+09    3.078401854695638e-01    3.932823869204330e-01    
7.800000000000000e+09    3.642633094481049e-01    -2.838383500025141e-01   
7.850000000000000e+09    -2.167762642728926e-01   -5.455772918775604e-01   
7.900000000000000e+09    -6.423758786318466e-01   -2.230138070454819e-01   
7.950000000000000e+09    -6.662477257342446e-01   2.390865953141189e-01    
8.000000000000000e+09    -3.507209051138563e-01   5.790879859381348e-01    
8.050000000000000e+09    1.836352723727476e-01    5.562645802396359e-01    
8.100000000000000e+09    4.723032192120556e-01    -1.210147127464438e-02   
8.150000000000000e+09    1.568489650456402e-02    -5.149403068801152e-01   
8.200000000000000e+09    -5.438018686802932e-01   -3.202199833948701e-01   
8.250000000000000e+09    -6.748179803041255e-01   1.504166896118652e-01    
8.300000000000000e+09    -4.509913971348813e-01   5.278991098403184e-01    
8.350000000000000e+09    -1.594589596315869e-02   6.352303404300663e-01    
8.400000000000000e+09    3.980556210611386e-01    3.303804106618702e-01    
8.450000000000000e+09    3.172152860631525e-01    -2.540537810848869e-01   
8.500000000000000e+09    -2.630933486560330e-01   -4.170297807500872e-01   
8.550000000000000e+09    -6.309291586498724e-01   -1.995626918761165e-02   
8.600000000000000e+09    -5.455186133383942e-01   4.381064562439782e-01    
8.650000000000000e+09    -1.869391182186584e-01   6.833704620253382e-01    
8.700000000000000e+09    2.672473213108756e-01    6.021176266887300e-01    
8.750000000000000e+09    5.284175948831366e-01    1.143589730427234e-01    
8.800000000000000e+09    1.400957150914696e-01    -4.189549232696109e-01   
8.850000000000000e+09    -4.910031810313190e-01   -2.213186264666365e-01   
8.900000000000000e+09    -5.747436462510609e-01   3.256649681453572e-01    
8.950000000000000e+09    -2.644639943107587e-01   6.642866286867087e-01    
9.000000000000000e+09    1.644843832561963e-01    6.943330567072422e-01    
9.050000000000000e+09    5.199369893975900e-01    3.970151372388683e-01    
9.100000000000000e+09    4.923414134114123e-01    -1.632262280534349e-01   
9.150000000000000e+09    -1.260083658601948e-01   -4.023167455237651e-01   
9.200000000000000e+09    -5.352218652182186e-01   9.975404212754703e-02    
9.250000000000000e+09    -3.223533105576553e-01   5.879186294158381e-01    
9.300000000000000e+09    9.961694066763335e-02    7.160327922849490e-01    
9.350000000000000e+09    4.766974704879094e-01    5.378146790528217e-01    
9.400000000000000e+09    6.440635976849359e-01    1.164267985587825e-01    
9.450000000000000e+09    3.584216511519789e-01    -3.574691575481144e-01   
9.500000000000000e+09    -2.944018292402625e-01   -2.661721420484520e-01   
9.550000000000000e+09    -3.943670176503167e-01   3.631641062966489e-01    
9.600000000000000e+09    2.512141462268895e-02    6.679811029366181e-01    
9.650000000000000e+09    4.405261651722067e-01    5.738043100801536e-01    
9.700000000000000e+09    6.754424445307023e-01    2.485752858112163e-01    
9.750000000000000e+09    6.266283772266817e-01    -1.876088875966242e-01   
9.800000000000000e+09    1.651287496431624e-01    -4.679166576867334e-01   
9.850000000000000e+09    -3.648346695313139e-01   -8.352267452101113e-02   
9.900000000000000e+09    -1.496517029834979e-01   5.154442365919747e-01    
9.950000000000000e+09    3.629323285377520e-01    5.741930883272575e-01    
1.000000000000000e+10    6.777090126353892e-01    2.919725923666205e-01    
1.005000000000000e+10    7.274598993486423e-01    -9.823976922903510e-02   
1.010000000000000e+10    4.882058408305885e-01    -4.524546837026514e-01   
1.015000000000000e+10    -3.601278548260614e-02   -4.963662801353464e-01   
1.020000000000000e+10    -3.312568523776481e-01   7.903583981882448e-02    
1.025000000000000e+10    1.443480286378079e-01    5.036416714954046e-01    
1.030000000000000e+10    6.134300774212683e-01    2.982476820599372e-01    
1.035000000000000e+10    7.380008489745505e-01    -9.700759993839192e-02   
1.040000000000000e+10    5.897339584869218e-01    -4.494441303280809e-01   
1.045000000000000e+10    2.191629316327268e-01    -6.343433395450309e-01   
1.050000000000000e+10    -2.481315179157465e-01   -4.290484052001021e-01   
1.055000000000000e+10    -2.377884294732540e-01   2.032412401335628e-01    
1.060000000000000e+10    3.762157856905858e-01    3.443165180874593e-01    
1.065000000000000e+10    6.775943018586001e-01    -6.014843244569795e-02   
1.070000000000000e+10    5.909515526058547e-01    -4.557654008556862e-01   
1.075000000000000e+10    2.987835931217624e-01    -6.829153416713827e-01   
1.080000000000000e+10    -9.809748613131491e-02   -6.704511721193744e-01   
1.085000000000000e+10    -4.095997314284716e-01   -2.935799066560332e-01   
1.090000000000000e+10    -1.369855238172095e-01   2.552262372413813e-01    
1.095000000000000e+10    4.694107854264918e-01    1.143306935235328e-01    
1.100000000000000e+10    5.479998727958048e-01    -3.783587513991080e-01   
1.105000000000000e+10    2.889775936950888e-01    -6.764410627087488e-01   
1.110000000000000e+10    -6.004256372358611e-02   -7.348196522288787e-01   
1.115000000000000e+10    -3.867745879084049e-01   -5.498345701438841e-01   
1.120000000000000e+10    -4.917162893439621e-01   -9.860442194066615e-02   
1.125000000000000e+10    -2.511054968034016e-02   2.624296234887490e-01    
1.130000000000000e+10    4.458333226877412e-01    -1.323509187536432e-01   
1.135000000000000e+10    2.797211288787338e-01    -5.986480852818933e-01   
1.140000000000000e+10    -9.022881640762111e-02   -7.257687068050076e-01   
1.145000000000000e+10    -4.173499810284294e-01   -6.013233187116949e-01   
1.150000000000000e+10    -6.009176266050488e-01   -2.831154260863760e-01   
1.155000000000000e+10    -4.687777684159778e-01   1.465633983605968e-01    
1.160000000000000e+10    9.249029651688605e-02    2.348813263573394e-01    
1.165000000000000e+10    3.164480896299781e-01    -3.211006048732080e-01   
1.170000000000000e+10    -4.502928735107335e-02   -6.511287259125038e-01   
1.175000000000000e+10    -4.249452268982847e-01   -5.860773222414635e-01   
1.180000000000000e+10    -6.479723814958624e-01   -3.223976880316043e-01   
1.185000000000000e+10    -6.587346150663973e-01   3.650861474022082e-02    
1.190000000000000e+10    -3.531979159373791e-01   3.465289133646829e-01    
1.195000000000000e+10    1.759333143288850e-01    1.880532099036646e-01    
1.200000000000000e+10    1.490648452830610e-01    -4.006850869316017e-01   
1.205000000000000e+10    -3.199751857805869e-01   -5.456051173982955e-01   
1.210000000000000e+10    -6.309580489263771e-01   -3.173668191320411e-01   
1.215000000000000e+10    -7.032658912756234e-01   1.743568860081139e-02    
1.220000000000000e+10    -5.440767309309201e-01   3.310457313900519e-01    
1.225000000000000e+10    -1.431891222489688e-01   4.500886668705205e-01    
1.230000000000000e+10    2.298928737992164e-01    7.858899802719055e-02    
1.235000000000000e+10    -5.046454084850532e-02   -4.115000523400416e-01   
1.240000000000000e+10    -5.213361619868958e-01   -3.264910845589609e-01   
1.245000000000000e+10    -6.835559193172998e-01   1.446056758551886e-02    
1.250000000000000e+10    -5.850003924504726e-01   3.312671651963267e-01    
1.255000000000000e+10    -3.026942172535028e-01   5.141516390590035e-01    
1.260000000000000e+10    7.777997297056520e-02    4.245987889906698e-01    
1.265000000000000e+10    2.179412338244061e-01    -4.310956848625791e-02   
1.270000000000000e+10    -2.270205318998026e-01   -3.380445172395974e-01   
1.275000000000000e+10    -5.999886807354671e-01   -6.147108721217449e-02   
1.280000000000000e+10    -5.944753825481079e-01   3.065239534296529e-01    
1.285000000000000e+10    -3.764553754639461e-01   5.384264166393009e-01    
1.290000000000000e+10    -6.058013520769058e-02   5.837688490422348e-01    
1.295000000000000e+10    2.365837510084143e-01    3.638589296722702e-01    
1.300000000000000e+10    1.890734931052906e-01    -1.006066049214688e-01   
1.305000000000000e+10    -3.243537736504115e-01   -1.991167972017124e-01   
1.310000000000000e+10    -5.526091839909122e-01   2.041723802316553e-01    
1.315000000000000e+10    -3.904155577804888e-01   5.414103094651602e-01    
1.320000000000000e+10    -8.306143730971756e-02   6.615802840601728e-01    
1.325000000000000e+10    2.380985917031683e-01    5.546201791827773e-01    
1.330000000000000e+10    4.086141867733445e-01    1.987597641522856e-01    
1.335000000000000e+10    1.294700933622059e-01    -2.007248184982332e-01   
1.340000000000000e+10    -3.714502140776927e-01   -4.015247148117614e-02   
1.345000000000000e+10    -3.886819235874451e-01   4.196675477545371e-01    
1.350000000000000e+10    -8.492492311415206e-02   6.493625588929568e-01    
1.355000000000000e+10    2.568446842817967e-01    6.079157303858592e-01    
1.360000000000000e+10    4.929671012703556e-01    3.391197515690451e-01    
1.365000000000000e+10    4.449756520228395e-01    -7.410365119753565e-02   
1.370000000000000e+10    -1.493813692437456e-02   -2.586485634704977e-01   
1.375000000000000e+10    -3.501612425984979e-01   1.341306866857170e-01    
1.380000000000000e+10    -1.425303914377292e-01   5.342385761278388e-01    
1.385000000000000e+10    2.381008153445462e-01    5.856762304092479e-01    
1.390000000000000e+10    5.205202142665600e-01    3.668414206186474e-01    
1.395000000000000e+10    5.710903875387612e-01    -7.407986392606031e-03   
1.400000000000000e+10    2.734060821542232e-01    -3.275949806473617e-01   
1.405000000000000e+10    -2.091361499774810e-01   -1.972605848597289e-01   
1.410000000000000e+10    -2.625390551933547e-01   3.017769042184408e-01    
1.415000000000000e+10    1.075126903649623e-01    5.344547871985192e-01    
1.420000000000000e+10    4.634991166732219e-01    3.958096755125694e-01    
1.425000000000000e+10    6.021134275300921e-01    5.741915195386054e-02    
1.430000000000000e+10    4.365930630590951e-01    -2.958141242647788e-01   
1.435000000000000e+10    -1.073588741937615e-03   -3.788113090384171e-01   
1.440000000000000e+10    -2.914964903350981e-01   1.288507777397702e-02    
1.445000000000000e+10    -4.539270829849539e-02   4.172589548333395e-01    
1.450000000000000e+10    3.699965032865166e-01    3.966131877035600e-01    
1.455000000000000e+10    5.811575439702109e-01    8.672449693198746e-02    
1.460000000000000e+10    4.927747223307713e-01    -2.732340189673060e-01   
1.465000000000000e+10    1.362871285533507e-01    -4.476843786002453e-01   
1.470000000000000e+10    -2.433454137785695e-01   -2.175869767814050e-01   
1.475000000000000e+10    -1.946324740290455e-01   2.463652528201272e-01    
1.480000000000000e+10    2.239016140621812e-01    3.847228089148373e-01    
1.485000000000000e+10    5.216852069469377e-01    1.269515353774993e-01    
1.490000000000000e+10    4.985315210094907e-01    -2.393999257860624e-01   
1.495000000000000e+10    1.959819967334203e-01    -4.577612598643744e-01   
1.500000000000000e+10    -1.838727630397871e-01   -3.261180350738337e-01   
1.505000000000000e+10    -2.500341956113897e-01   9.977739609974613e-02    
1.510000000000000e+10    1.046011993732987e-01    3.292001315189890e-01    
1.515000000000000e+10    4.366220692707777e-01    1.358577490844772e-01    
1.520000000000000e+10    4.583850686600056e-01    -2.127998662325523e-01   
1.525000000000000e+10    2.027453373870092e-01    -4.334524936957667e-01   
1.530000000000000e+10    -1.412395543290334e-01   -3.465291740069114e-01   
1.535000000000000e+10    -2.338935984218251e-01   2.358183275446107e-02    
1.540000000000000e+10    7.860091352318177e-02    2.538966490788876e-01    
1.545000000000000e+10    3.851474276780979e-01    7.716584896034812e-02    
1.550000000000000e+10    3.839220755904879e-01    -2.348912366519624e-01   
1.555000000000000e+10    1.553760457397936e-01    -4.020688779769850e-01   
1.560000000000000e+10    -1.137282498782928e-01   -3.219752293593318e-01   
1.565000000000000e+10    -1.867218314384524e-01   -2.236843659184259e-02   
1.570000000000000e+10    8.025675456050030e-02    1.685694166098455e-01    
1.575000000000000e+10    3.456820744777610e-01    -1.010437335309122e-02   
1.580000000000000e+10    3.087039755802419e-01    -2.980984683573567e-01   
1.585000000000000e+10    6.716727355814642e-02    -4.090671020715944e-01   
1.590000000000000e+10    -1.477008612553554e-01   -2.714211468438131e-01   
1.595000000000000e+10    -1.187050474715064e-01   -1.623336752524213e-02   
1.600000000000000e+10    1.290286395688546e-01    4.739872266781518e-02    
1.605000000000000e+10    2.742950528316446e-01    -1.447569772230424e-01   
1.610000000000000e+10    1.892170742447124e-01    -3.522028017563761e-01   
1.615000000000000e+10    -2.148657062906277e-02   -4.092578080117855e-01   
1.620000000000000e+10    -1.897362623775903e-01   -2.538286477121758e-01   
1.625000000000000e+10    -1.034598393066683e-01   -2.836123837864362e-02   
1.630000000000000e+10    1.305314113766551e-01    -6.221583051367075e-02   
1.635000000000000e+10    1.609378100866524e-01    -2.678847636035940e-01   
1.640000000000000e+10    3.596046995167654e-02    -3.635068164435509e-01   
1.645000000000000e+10    -7.637273221961714e-02   -3.534186324630640e-01   
1.650000000000000e+10    -1.565786463615464e-01   -3.089265558570886e-01   
1.655000000000000e+10    -2.072803253791901e-01   -2.116184674973519e-01   
1.660000000000000e+10    -1.342256443049580e-01   -8.841076757515237e-02   
1.665000000000000e+10    3.470992293159986e-02    -1.276732531487821e-01   
1.670000000000000e+10    4.926113936145719e-02    -3.277143044622149e-01   
1.675000000000000e+10    -1.198276139822180e-01   -4.377767542752415e-01   
1.680000000000000e+10    -3.078164789852000e-01   -3.792566615581766e-01   
1.685000000000000e+10    -3.980037799407855e-01   -2.014634852702979e-01   
1.690000000000000e+10    -3.033191153612100e-01   -8.311619220739091e-03   
1.695000000000000e+10    -6.054744100499722e-02   -1.905275232759996e-02   
1.700000000000000e+10    2.389184255459513e-03    -2.668365548168461e-01   
1.705000000000000e+10    -1.956591943343606e-01   -4.217697515392882e-01   
1.710000000000000e+10    -4.212225887070548e-01   -3.604453359994871e-01   
1.715000000000000e+10    -5.318860608815311e-01   -1.677586288570965e-01   
1.720000000000000e+10    -4.714150075188132e-01   5.587570851046051e-02    
1.725000000000000e+10    -2.322744182831107e-01   1.411925112182012e-01    
1.730000000000000e+10    -4.449861270557456e-02   -6.976071846251129e-02   
1.735000000000000e+10    -1.971599333771006e-01   -3.234391638756169e-01   
1.740000000000000e+10    -4.736534784195122e-01   -2.972085597746211e-01   
1.745000000000000e+10    -6.179795869269494e-01   -9.270193519378130e-02   
1.750000000000000e+10    -5.864109372785120e-01   1.447545694036423e-01    
1.755000000000000e+10    -3.810606045900313e-01   2.941125918698684e-01    
1.760000000000000e+10    -1.241877040004268e-01   1.808748019845806e-01    
1.765000000000000e+10    -1.654327856709530e-01   -1.112655553794425e-01   
1.770000000000000e+10    -4.354531078626004e-01   -1.615051942942675e-01   
1.775000000000000e+10    -6.066045163667247e-01   1.239455308081823e-02    
1.780000000000000e+10    -6.106183158418136e-01   2.359125073001736e-01    
1.785000000000000e+10    -4.835957377423572e-01   4.066153558834750e-01    
1.790000000000000e+10    -2.549055802806850e-01   4.611341400635882e-01    
1.795000000000000e+10    -4.843001992192194e-02   2.622862487030421e-01    
1.800000000000000e+10    -2.236235036193102e-01   -1.621528488243841e-02   
1.805000000000000e+10    -5.137640664317032e-01   9.234852046189714e-02    
1.810000000000000e+10    -5.625491501884895e-01   3.441325240005589e-01    
1.815000000000000e+10    -4.482356494426025e-01   5.428490430596845e-01    
1.820000000000000e+10    -2.396360445379321e-01   6.338604549578628e-01    
1.825000000000000e+10    6.128513182635563e-04    5.516836328526938e-01    
1.830000000000000e+10    6.150189618334641e-02    2.559869528808255e-01    
1.835000000000000e+10    -2.460880725909723e-01   1.299666330402353e-01    
1.840000000000000e+10    -4.211780067013126e-01   3.830192784593117e-01    
1.845000000000000e+10    -3.211660397302571e-01   6.165329741567978e-01    
1.850000000000000e+10    -1.218658106523412e-01   7.170414182797619e-01    
1.855000000000000e+10    9.536363916117806e-02    6.870195973167120e-01    
1.860000000000000e+10    2.556072186365138e-01    5.019698872025159e-01    
1.865000000000000e+10    1.597089778246150e-01    2.214421205410787e-01    
1.870000000000000e+10    -1.590433286451234e-01   2.894378989455297e-01    
1.875000000000000e+10    -1.522584059862649e-01   5.800524685644111e-01    
1.880000000000000e+10    4.255711404654684e-02    7.064818808324346e-01    
1.885000000000000e+10    2.463117213676140e-01    6.875589084603300e-01    
1.890000000000000e+10    4.071748962028413e-01    5.629108500340787e-01    
1.895000000000000e+10    4.526245099612364e-01    3.388951500135104e-01    
1.900000000000000e+10    2.410171099776079e-01    1.590810301402034e-01    
1.905000000000000e+10    2.566517792096598e-02    3.638064847585175e-01    
1.910000000000000e+10    1.731603132588232e-01    5.881739979857102e-01    
1.915000000000000e+10    3.932756091586626e-01    5.996357215051635e-01    
1.920000000000000e+10    5.555706033850325e-01    4.879023514716151e-01    
1.925000000000000e+10    6.314119054525312e-01    2.998640041445149e-01    
1.930000000000000e+10    5.500827289808139e-01    8.675641339549238e-02    
1.935000000000000e+10    2.818968653880204e-01    7.293616741570835e-02    
1.940000000000000e+10    2.497522707911206e-01    3.474423632833916e-01    
1.945000000000000e+10    4.772809609382676e-01    4.278735911511545e-01    
1.950000000000000e+10    6.529513067502781e-01    3.236103737353365e-01    
1.955000000000000e+10    7.241184108780064e-01    1.527957057672186e-01    
1.960000000000000e+10    6.885701113260499e-01    -2.610880192294743e-02   
1.965000000000000e+10    5.394846415589821e-01    -1.388580275822775e-01   
1.970000000000000e+10    3.687658592227102e-01    -5.582473555701775e-02   
1.975000000000000e+10    4.335643194126207e-01    1.247700385080604e-01    
1.980000000000000e+10    6.195268949945533e-01    9.654477385346782e-02    
1.985000000000000e+10    7.020925679593700e-01    -5.393136222070513e-02   
1.990000000000000e+10    6.831985332269309e-01    -2.081992536359608e-01   
1.995000000000000e+10    5.877030730751402e-01    -3.215611560749824e-01   
2.000000000000000e+10    4.515117573303601e-01    -3.484464000665602e-01   
2.005000000000000e+10    3.695105028780694e-01    -2.691270822117498e-01   
2.010000000000000e+10    4.179689663395023e-01    -1.865531189799047e-01   
2.015000000000000e+10    5.275462609021891e-01    -2.126064957546136e-01   
2.020000000000000e+10    5.825139157228423e-01    -3.419604933090706e-01   
2.025000000000000e+10    5.383731191842303e-01    -4.908743779992515e-01   
2.030000000000000e+10    4.119829500795416e-01    -5.961693057526052e-01   
2.035000000000000e+10    2.315380188140139e-01    -6.063422384553925e-01   
2.040000000000000e+10    9.982133244655472e-02    -4.475785873886816e-01   
2.045000000000000e+10    2.521896873469870e-01    -2.796961797447012e-01   
2.050000000000000e+10    4.216626553946877e-01    -4.280926333390461e-01   
2.055000000000000e+10    3.697467960663538e-01    -6.239250832372930e-01   
2.060000000000000e+10    2.210133265927072e-01    -7.295287194954688e-01   
2.065000000000000e+10    4.180848579003449e-02    -7.376581408849676e-01   
2.070000000000000e+10    -1.180051080297716e-01   -6.247674560844075e-01   
2.075000000000000e+10    -1.019818580840437e-01   -4.055522839869879e-01   
2.080000000000000e+10    1.295975602505549e-01    -4.134678089262933e-01   
2.085000000000000e+10    1.399696000408352e-01    -6.315356668602039e-01   
2.090000000000000e+10    -1.630536213012215e-02   -7.435257068250622e-01   
2.095000000000000e+10    -1.935492999979967e-01   -7.424111529039477e-01   
2.100000000000000e+10    -3.434394595372079e-01   -6.505010848451881e-01   
2.105000000000000e+10    -4.062781031270257e-01   -4.695522134088669e-01   
2.110000000000000e+10    -2.631701190121619e-01   -3.143663770031954e-01   
2.115000000000000e+10    -1.049450228879038e-01   -4.603176873913142e-01   
2.120000000000000e+10    -2.240898146985763e-01   -6.265252480519611e-01   
2.125000000000000e+10    -4.060945748771322e-01   -6.288084954938397e-01   
2.130000000000000e+10    -5.465593589395322e-01   -5.338134631081225e-01   
2.135000000000000e+10    -6.173895497099914e-01   -3.807925540272820e-01   
2.140000000000000e+10    -5.664901259963027e-01   -2.082905880135338e-01   
2.145000000000000e+10    -3.787412563367610e-01   -1.818237087938190e-01   
2.150000000000000e+10    -3.587643375928891e-01   -3.691791996368641e-01   
2.155000000000000e+10    -5.360344308845588e-01   -4.209209149201920e-01   
2.160000000000000e+10    -6.771593833865523e-01   -3.265686371493067e-01   
2.165000000000000e+10    -7.397466812897581e-01   -1.785980520068321e-01   
2.170000000000000e+10    -7.195452511996326e-01   -2.106486755766849e-02   
2.175000000000000e+10    -5.976459429531779e-01   8.777263196034631e-02    
2.180000000000000e+10    -4.493752288086691e-01   2.330795949021695e-02    
2.185000000000000e+10    -5.159162912020904e-01   -1.184875418162296e-01   
2.190000000000000e+10    -6.761051044982349e-01   -7.884392119318374e-02   
2.195000000000000e+10    -7.457395238819329e-01   6.319369897342983e-02    
2.200000000000000e+10    -7.260544521126808e-01   2.125470031266783e-01    
2.205000000000000e+10    -6.363611568153826e-01   3.296738951963894e-01    
2.210000000000000e+10    -4.931064066373053e-01   3.642879896489262e-01    
2.215000000000000e+10    -4.007550370871031e-01   2.594755520738628e-01    
2.220000000000000e+10    -5.016746702661928e-01   1.758723424089829e-01    
2.225000000000000e+10    -6.128364242429825e-01   2.709718121814474e-01    
2.230000000000000e+10    -6.114107887649803e-01   4.172374738799539e-01    
2.235000000000000e+10    -5.279827150709050e-01   5.354029701023515e-01    
2.240000000000000e+10    -3.961452976994568e-01   5.956759632252290e-01    
2.245000000000000e+10    -2.572540467779318e-01   5.590069401536329e-01    
2.250000000000000e+10    -2.281492123909897e-01   4.256783811313308e-01    
2.255000000000000e+10    -3.545640021015110e-01   3.991681974113578e-01    
2.260000000000000e+10    -4.068262569089609e-01   5.347514951866689e-01    
2.265000000000000e+10    -3.371899140746870e-01   6.641135612578243e-01    
2.270000000000000e+10    -2.112684190582214e-01   7.293758367001318e-01    
2.275000000000000e+10    -6.645274261050850e-02   7.223187042049498e-01    
2.280000000000000e+10    4.796920705854688e-02    6.288610862178537e-01    
2.285000000000000e+10    2.124771663269242e-02    4.857400104859440e-01    
2.290000000000000e+10    -1.193306784076129e-01   5.129492788095115e-01    
2.295000000000000e+10    -1.055885919760376e-01   6.640288796669007e-01    
2.300000000000000e+10    2.086537134654284e-02    7.454534679560502e-01    
2.305000000000000e+10    1.651159401018963e-01    7.403964286443647e-01    
2.310000000000000e+10    2.862983784589730e-01    6.597201485667018e-01    
2.315000000000000e+10    3.296428266909425e-01    5.170380594927397e-01    
2.320000000000000e+10    2.231749921121673e-01    4.218809404270516e-01    
2.325000000000000e+10    1.329445739800198e-01    5.277983722820615e-01    
2.330000000000000e+10    2.238999782406073e-01    6.389441479031582e-01    
2.335000000000000e+10    3.661078443665108e-01    6.425121538227698e-01    
2.340000000000000e+10    4.818975707276251e-01    5.712723014892749e-01    
2.345000000000000e+10    5.421853605657128e-01    4.513343154888931e-01    
2.350000000000000e+10    5.129145677763263e-01    3.230716099347404e-01    
2.355000000000000e+10    4.041311233030021e-01    2.959652603060365e-01    
2.360000000000000e+10    3.818872546598042e-01    3.941456635317623e-01    
2.365000000000000e+10    4.814458171123806e-01    4.415804279100006e-01    
2.370000000000000e+10    5.901248435065611e-01    3.972481562925737e-01    
2.375000000000000e+10    6.601900565771156e-01    3.041011711183326e-01    
2.380000000000000e+10    6.762680805627025e-01    1.905250605359608e-01    
2.385000000000000e+10    6.264053665204952e-01    8.629777757364998e-02    
2.390000000000000e+10    5.210528668367481e-01    6.005989507109065e-02    
2.395000000000000e+10    4.865231704388926e-01    1.536654526281765e-01    
2.400000000000000e+10    5.939235224334692e-01    2.001574111492009e-01    
2.405000000000000e+10    7.003459900158273e-01    1.252177467868597e-01    
2.410000000000000e+10    7.408368793974298e-01    -6.848374797031123e-04   
2.415000000000000e+10    7.102905802850618e-01    -1.287748730539860e-01   
2.420000000000000e+10    6.042832326627685e-01    -2.171535013341241e-01   
2.425000000000000e+10    4.661091250005072e-01    -1.868899856532548e-01   
2.430000000000000e+10    4.746106188068416e-01    -5.091943534892844e-02   
2.435000000000000e+10    6.211231249076102e-01    -4.657444965204665e-02   
2.440000000000000e+10    6.968358570156079e-01    -1.689098227531270e-01   
2.445000000000000e+10    6.771174983270338e-01    -3.073909682667632e-01   
2.450000000000000e+10    5.865784535554553e-01    -4.175595104257649e-01   
2.455000000000000e+10    4.379583710200091e-01    -4.525703594386053e-01   
2.460000000000000e+10    3.146160711139650e-01    -3.386690153213242e-01   
2.465000000000000e+10    4.165487160267844e-01    -1.983475405182201e-01   
2.470000000000000e+10    5.705835889337247e-01    -2.862366592999661e-01   
2.475000000000000e+10    5.803292449486205e-01    -4.452969807818544e-01   
2.480000000000000e+10    4.935753543601145e-01    -5.641158715794301e-01   
2.485000000000000e+10    3.544505982414003e-01    -6.154538817302129e-01   
2.490000000000000e+10    2.087857077711707e-01    -5.590535711474706e-01   
2.495000000000000e+10    1.944219161741446e-01    -3.964956349280107e-01   
2.500000000000000e+10    3.573836954353921e-01    -3.683464232153739e-01   
2.505000000000000e+10    4.235326923095002e-01    -5.178210603068980e-01   
2.510000000000000e+10    3.538986635521198e-01    -6.518534141134446e-01   
2.515000000000000e+10    2.290533461800971e-01    -7.133532714718105e-01   
2.520000000000000e+10    9.676845685441482e-02    -6.997223691659914e-01   
2.525000000000000e+10    9.351143660083173e-03    -6.115615588169546e-01   
2.530000000000000e+10    3.605148826141775e-02    -5.047418648574677e-01   
2.535000000000000e+10    1.422487813760001e-01    -5.183742644376608e-01   
2.540000000000000e+10    1.530405681625951e-01    -6.446889224021244e-01   
2.545000000000000e+10    5.369429187927503e-02    -7.369050705054464e-01   
2.550000000000000e+10    -7.898248010324255e-02   -7.521967671338373e-01   
2.555000000000000e+10    -2.020077718075662e-01   -6.961012435397533e-01   
2.560000000000000e+10    -2.702668210898326e-01   -5.711899004807253e-01   
2.565000000000000e+10    -1.955250286437640e-01   -4.404227125925705e-01   
2.570000000000000e+10    -5.350676881989166e-02   -5.003467568305175e-01   
2.575000000000000e+10    -9.300242330178320e-02   -6.513851372145617e-01   
2.580000000000000e+10    -2.324360740902974e-01   -7.046933674914777e-01   
2.585000000000000e+10    -3.676269861173124e-01   -6.659161072634725e-01   
2.590000000000000e+10    -4.629526264981743e-01   -5.578001972000793e-01   
2.595000000000000e+10    -4.658523899411279e-01   -3.987337147032237e-01   
2.600000000000000e+10    -3.092019256470055e-01   -3.223129072152167e-01   
2.605000000000000e+10    -2.230481771909686e-01   -4.818800387339163e-01   
2.610000000000000e+10    -3.518384723199067e-01   -5.921123294217807e-01   
2.615000000000000e+10    -5.024047182747471e-01   -5.668295401991430e-01   
2.620000000000000e+10    -6.062552377540902e-01   -4.698335862015767e-01   
2.625000000000000e+10    -6.415870040328090e-01   -3.288872555030538e-01   
2.630000000000000e+10    -5.604993865358219e-01   -1.866179654894182e-01   
2.635000000000000e+10    -3.832733283650527e-01   -2.208752688561753e-01   
2.640000000000000e+10    -4.225056979570986e-01   -4.020577437320451e-01   
2.645000000000000e+10    -5.880659738639209e-01   -4.176408905856482e-01   
2.650000000000000e+10    -7.004260242660162e-01   -3.238515853380377e-01   
2.655000000000000e+10    -7.457069485945199e-01   -1.930260987439456e-01   
2.660000000000000e+10    -7.123301099900144e-01   -5.630047682044056e-02   
2.665000000000000e+10    -5.743298714763447e-01   1.502650376527574e-02    
2.670000000000000e+10    -4.735783348314109e-01   -1.135386729044849e-01   
2.675000000000000e+10    -6.085790736442668e-01   -2.086007913422830e-01   
2.680000000000000e+10    -7.384970750992975e-01   -1.347575999708084e-01   
2.685000000000000e+10    -7.863807288858571e-01   -1.051360904486753e-02   
2.690000000000000e+10    -7.695288513010641e-01   1.157030802712332e-01    
2.695000000000000e+10    -6.870893493889192e-01   2.130888489677483e-01    
2.700000000000000e+10    -5.581717779129698e-01   2.049649699019877e-01    
2.705000000000000e+10    -5.634846230680164e-01   8.393123885369820e-02    
2.710000000000000e+10    -6.924705882211524e-01   1.002678477047995e-01    
2.715000000000000e+10    -7.480068322414232e-01   2.138607108317902e-01    
2.720000000000000e+10    -7.320718314957882e-01   3.287853603884482e-01    
2.725000000000000e+10    -6.706448401887745e-01   4.214114054588722e-01    
2.730000000000000e+10    -5.762271357005306e-01   4.708527580728196e-01    
2.735000000000000e+10    -4.894507445997318e-01   4.390692596710661e-01    
2.740000000000000e+10    -5.152103212108204e-01   3.754542979809859e-01    
2.745000000000000e+10    -5.899243465671751e-01   4.276058901949478e-01    
2.750000000000000e+10    -5.918481887912157e-01   5.356267875128878e-01    
2.755000000000000e+10    -5.374567474250976e-01   6.275518651549894e-01    
2.760000000000000e+10    -4.526287055590522e-01   6.888194115476636e-01    
2.765000000000000e+10    -3.536694595590644e-01   7.077667449968842e-01    
2.770000000000000e+10    -2.859707206623011e-01   6.624549437496123e-01    
2.775000000000000e+10    -3.250178565865008e-01   6.386992772906785e-01    
2.780000000000000e+10    -3.324996701062189e-01   7.280300674141874e-01    
2.785000000000000e+10    -2.610836981645188e-01   8.092079452101275e-01    
2.790000000000000e+10    -1.665761867265362e-01   8.530150186557813e-01    
2.795000000000000e+10    -6.695963214633625e-02   8.667044609113762e-01    
2.800000000000000e+10    2.914887146198756e-02    8.514087765807247e-01    
2.805000000000000e+10    9.017265818483906e-02    8.132805995306408e-01    
2.810000000000000e+10    1.226901460546571e-01    8.266620932210826e-01    
2.815000000000000e+10    2.280975088150886e-01    8.417203424615279e-01    
2.820000000000000e+10    3.505989960467441e-01    8.323922355530939e-01    
2.825000000000000e+10    5.107073895421440e-01    7.290138648711675e-01    
2.830000000000000e+10    5.850975568627116e-01    4.745490073580687e-01    
2.835000000000000e+10    3.619763843568302e-01    3.959149253748923e-01    
2.840000000000000e+10    4.042381336717566e-01    4.190631754957465e-01    
2.845000000000000e+10    3.586279540109287e-01    2.959179889094511e-01    
2.850000000000000e+10    1.558128371656922e-01    3.402483036385409e-01    
2.855000000000000e+10    1.710084157911434e-01    5.669054158954450e-01    
2.860000000000000e+10    3.444432121951824e-01    6.442629103282335e-01    
2.865000000000000e+10    4.922085452105602e-01    6.013900472534988e-01    
2.870000000000000e+10    5.825504203855033e-01    5.010624784526413e-01    
2.875000000000000e+10    5.957695521611285e-01    3.779456702866362e-01    
2.880000000000000e+10    5.136912229663559e-01    3.233683319560868e-01    
2.885000000000000e+10    4.973122729216513e-01    4.115225067928552e-01    
2.890000000000000e+10    6.139634013890088e-01    4.418251381070422e-01    
2.895000000000000e+10    7.215356110524755e-01    3.782400147707259e-01    
2.900000000000000e+10    7.845073259434820e-01    2.766299405621340e-01    
2.905000000000000e+10    8.009009672756520e-01    1.608563372301735e-01    
2.910000000000000e+10    7.596017639026997e-01    5.839054122741417e-02    
2.915000000000000e+10    6.805329123760894e-01    4.210298654838916e-02    
2.920000000000000e+10    7.084758915715502e-01    9.283017969440591e-02    
2.925000000000000e+10    7.955600716203215e-01    4.578363068478344e-02    
2.930000000000000e+10    8.360442417358619e-01    -5.673625261852667e-02   
2.935000000000000e+10    8.322055372230096e-01    -1.647725966236990e-01   
2.940000000000000e+10    7.912651801575897e-01    -2.602289683582527e-01   
2.945000000000000e+10    7.161732876613608e-01    -3.231812867571863e-01   
2.950000000000000e+10    6.505864240406057e-01    -3.156699570749614e-01   
2.955000000000000e+10    6.796615970233361e-01    -3.037485954014614e-01   
2.960000000000000e+10    7.151758616800101e-01    -3.738412161210133e-01   
2.965000000000000e+10    7.008035457913934e-01    -4.672953911388685e-01   
2.970000000000000e+10    6.523408393281431e-01    -5.521229839268914e-01   
2.975000000000000e+10    5.798446796478505e-01    -6.141680341405880e-01   
2.980000000000000e+10    4.952838997668051e-01    -6.375107574382370e-01   
2.985000000000000e+10    4.428947462977768e-01    -6.172994254179535e-01   
2.990000000000000e+10    4.559385010130059e-01    -6.280474544428931e-01   
2.995000000000000e+10    4.456807614745383e-01    -6.994642253994670e-01   
3.000000000000000e+10    3.879321787218379e-01    -7.667949002437904e-01   
3.005000000000000e+10    3.070775474772274e-01    -8.110409036637383e-01   
3.010000000000000e+10    2.194320989203155e-01    -8.310617524206514e-01   
3.015000000000000e+10    1.392799159751568e-01    -8.206328291658808e-01   
3.020000000000000e+10    9.437320129424367e-02    -7.894189558598224e-01   
3.025000000000000e+10    8.613931495162323e-02    -7.960004423312332e-01   
3.030000000000000e+10    4.440458511638618e-02    -8.415475174397187e-01   
3.035000000000000e+10    -3.295187194251850e-02   -8.682803412053121e-01   
3.040000000000000e+10    -1.199281714199196e-01   -8.669194937117263e-01   
3.045000000000000e+10    -2.027208772767829e-01   -8.422433258809487e-01   
3.050000000000000e+10    -2.635584801719456e-01   -7.972612118077617e-01   
3.055000000000000e+10    -2.836722591820607e-01   -7.571033573449855e-01   
3.060000000000000e+10    -3.026900659679689e-01   -7.642356797705494e-01   
3.065000000000000e+10    -3.657806821126824e-01   -7.747058803851742e-01   
3.070000000000000e+10    -4.396840851138405e-01   -7.567941133590904e-01   
3.075000000000000e+10    -5.049586135295308e-01   -7.188624445431940e-01   
3.080000000000000e+10    -5.578339539091278e-01   -6.697035836075277e-01   
3.085000000000000e+10    -5.930044476156234e-01   -6.199573338038262e-01   
3.090000000000000e+10    -6.145798833362207e-01   -5.883104900355103e-01   
3.095000000000000e+10    -6.539775694865387e-01   -5.690510271457225e-01   
3.100000000000000e+10    -7.087837227767235e-01   -5.340103512490026e-01   
3.105000000000000e+10    -7.589591473411957e-01   -4.830023766457431e-01   
3.110000000000000e+10    -7.962915474227790e-01   -4.243341831124117e-01   
3.115000000000000e+10    -8.215170130997954e-01   -3.636420435528825e-01   
3.120000000000000e+10    -8.395902242738619e-01   -3.087335090753049e-01   
3.125000000000000e+10    -8.615979080530346e-01   -2.591961768734304e-01   
3.130000000000000e+10    -8.857791017364944e-01   -2.046397145268731e-01   
3.135000000000000e+10    -9.052027945016496e-01   -1.422590350041505e-01   
3.140000000000000e+10    -9.173939806262603e-01   -7.688925139528731e-02   
3.145000000000000e+10    -9.236161208914463e-01   -1.019873058202785e-02   
3.150000000000000e+10    -9.229145528202777e-01   5.634788957317311e-02    
3.155000000000000e+10    -9.168501276384472e-01   1.231279591597148e-01    
3.160000000000000e+10    -9.046399114852310e-01   1.875953642955840e-01    
3.165000000000000e+10    -8.859409899634219e-01   2.492964081625126e-01    
3.170000000000000e+10    -8.615518269152727e-01   3.069444227730541e-01    
3.175000000000000e+10    -8.369335400327262e-01   3.582693748992248e-01    
3.180000000000000e+10    -8.171527653622708e-01   4.094067135134989e-01    
3.185000000000000e+10    -7.917500958981624e-01   4.659287850670673e-01    
3.190000000000000e+10    -7.565128200805887e-01   5.225685261738843e-01    
3.195000000000000e+10    -7.145991292068840e-01   5.740687369533535e-01    
3.200000000000000e+10    -6.674065321291789e-01   6.161685109480806e-01    
3.205000000000000e+10    -6.223915813238771e-01   6.470325757085658e-01    
3.210000000000000e+10    -5.884275893708732e-01   6.788726110041279e-01    
3.215000000000000e+10    -5.525566917109418e-01   7.219964984955229e-01    
3.220000000000000e+10    -5.049658370532213e-01   7.637655512125821e-01    
3.225000000000000e+10    -4.486952744960288e-01   7.978767477128963e-01    
3.230000000000000e+10    -3.881700068476915e-01   8.247046941920076e-01    
3.235000000000000e+10    -3.293096345245064e-01   8.418291692910527e-01    
3.240000000000000e+10    -2.797007861681393e-01   8.530794603902765e-01    
3.245000000000000e+10    -2.336581587921158e-01   8.713091769684176e-01    
3.250000000000000e+10    -1.771435113854028e-01   8.932380734102843e-01    
3.255000000000000e+10    -1.121411921936725e-01   9.090935466686560e-01    
3.260000000000000e+10    -4.135496377328310e-02   9.135269367996559e-01    
3.265000000000000e+10    2.624393076366002e-02    8.844549897840417e-01    
3.270000000000000e+10    5.692177973845877e-02    9.058363566098261e-01    
3.275000000000000e+10    1.223857357856590e-01    9.073837174721618e-01    
3.280000000000000e+10    1.853136357814878e-01    9.040554287790205e-01    
3.285000000000000e+10    2.542993708382482e-01    8.935326812518203e-01    
3.290000000000000e+10    3.254625934154435e-01    8.737387452188590e-01    
3.295000000000000e+10    3.958005677566205e-01    8.461448699109616e-01    
3.300000000000000e+10    4.644500574520751e-01    8.102195430074639e-01    
3.305000000000000e+10    5.294948464202403e-01    7.626064962041857e-01    
3.310000000000000e+10    5.862008376993790e-01    7.046028536568731e-01    
3.315000000000000e+10    6.361562234596738e-01    6.367935732007026e-01    
3.320000000000000e+10    6.699545855742849e-01    5.522933332509452e-01    
3.325000000000000e+10    6.572982530994219e-01    4.645190581491708e-01    
3.330000000000000e+10    6.190581914936105e-01    4.471607852464711e-01    
3.335000000000000e+10    6.530255383038820e-01    4.537633779609235e-01    
3.340000000000000e+10    7.057966701914125e-01    4.094172358299012e-01    
3.345000000000000e+10    7.301698141486550e-01    3.358176091093535e-01    
3.350000000000000e+10    7.113033968575431e-01    2.666257549871027e-01    
3.355000000000000e+10    6.762106668232983e-01    2.528614468516197e-01    
3.360000000000000e+10    7.046961273519401e-01    2.704324837661748e-01    
3.365000000000000e+10    7.689885063903499e-01    2.371039059390452e-01    
3.370000000000000e+10    8.099163400321825e-01    1.618628836061155e-01    
3.375000000000000e+10    8.147215419155273e-01    7.439298203253464e-02    
3.380000000000000e+10    7.839662751060971e-01    7.278696808243571e-04    
3.385000000000000e+10    7.391963745564613e-01    -2.142092453528878e-02   
3.390000000000000e+10    7.484934287205002e-01    -1.309894910048422e-02   
3.395000000000000e+10    7.943988589403478e-01    -5.587400057496063e-02   
3.400000000000000e+10    8.155665904323109e-01    -1.374220559098937e-01   
3.405000000000000e+10    8.006048723204269e-01    -2.227340279230425e-01   
3.410000000000000e+10    7.542195173306488e-01    -2.945406607581463e-01   
3.415000000000000e+10    6.933878606910387e-01    -3.288360599064197e-01   
3.420000000000000e+10    6.722588816574459e-01    -3.210799451548595e-01   
3.425000000000000e+10    7.009592852017228e-01    -3.487003909876340e-01   
3.430000000000000e+10    7.062991061110666e-01    -4.255196706494532e-01   
3.435000000000000e+10    6.734496695699613e-01    -5.078383436345664e-01   
3.440000000000000e+10    6.155940316918864e-01    -5.733320503549345e-01   
3.445000000000000e+10    5.432362237457816e-01    -6.096317952478905e-01   
3.450000000000000e+10    4.832900864704117e-01    -6.114566924564371e-01   
3.455000000000000e+10    4.714108863242532e-01    -6.155398350495135e-01   
3.460000000000000e+10    4.660520305893521e-01    -6.671990629848580e-01   
3.465000000000000e+10    4.225698967798362e-01    -7.307665461235568e-01   
3.470000000000000e+10    3.502508240872959e-01    -7.786897325448727e-01   
3.475000000000000e+10    2.664481778870737e-01    -8.039893034880543e-01   
3.480000000000000e+10    1.880815950754207e-01    -7.988046118679411e-01   
3.485000000000000e+10    1.428364464881740e-01    -7.726753654115339e-01   
3.490000000000000e+10    1.282465013957799e-01    -7.791841867919835e-01   
3.495000000000000e+10    8.535992495951358e-02    -8.216420602493334e-01   
3.500000000000000e+10    1.076829052058998e-02    -8.509086079254865e-01   
3.505000000000000e+10    -7.423632306487218e-02   -8.524859329205623e-01   
3.510000000000000e+10    -1.565905458629631e-01   -8.283636411312656e-01   
3.515000000000000e+10    -2.170647629182845e-01   -7.822939270072919e-01   
3.520000000000000e+10    -2.348490274452660e-01   -7.454195017602495e-01   
3.525000000000000e+10    -2.570129097354438e-01   -7.573063913030853e-01   
3.530000000000000e+10    -3.247669691635771e-01   -7.700010172666277e-01   
3.535000000000000e+10    -4.051726816224799e-01   -7.521932048339466e-01   
3.540000000000000e+10    -4.776143731952138e-01   -7.091454618635722e-01   
3.545000000000000e+10    -5.334389533699848e-01   -6.476456445893896e-01   
3.550000000000000e+10    -5.567888191656766e-01   -5.842193337014104e-01   
3.555000000000000e+10    -5.584773275723306e-01   -5.601532208451424e-01   
3.560000000000000e+10    -6.022146594549482e-01   -5.606229044509976e-01   
3.565000000000000e+10    -6.710497451134348e-01   -5.275563205321709e-01   
3.570000000000000e+10    -7.291270976572494e-01   -4.671702726787152e-01   
3.575000000000000e+10    -7.670107823849923e-01   -3.925551880947132e-01   
3.580000000000000e+10    -7.802465081896209e-01   -3.151197856944967e-01   
3.585000000000000e+10    -7.713551961608429e-01   -2.609839918428635e-01   
3.590000000000000e+10    -7.827806542633476e-01   -2.423118814281030e-01   
3.595000000000000e+10    -8.272252191102982e-01   -2.027286354970968e-01   
3.600000000000000e+10    -8.622404184822023e-01   -1.315013993905630e-01   
3.605000000000000e+10    -8.770467098785905e-01   -5.030611992326115e-02   
3.610000000000000e+10    -8.715481159558638e-01   2.929066582634534e-02    
3.615000000000000e+10    -8.486873507730101e-01   9.529224127583440e-02    
3.620000000000000e+10    -8.300634914381810e-01   1.356564166216775e-01    
3.625000000000000e+10    -8.388286231212497e-01   1.791786783863307e-01    
3.630000000000000e+10    -8.448183646316405e-01   2.482897042080551e-01    
3.635000000000000e+10    -8.311030245230653e-01   3.251037158244567e-01    
3.640000000000000e+10    -8.010953045461781e-01   3.989192346500459e-01    
3.645000000000000e+10    -7.594240831049568e-01   4.637012610925370e-01    
3.650000000000000e+10    -7.132512490524996e-01   5.132839241315741e-01    
3.655000000000000e+10    -6.790782564089803e-01   5.536241852452725e-01    
3.660000000000000e+10    -6.506110245991220e-01   6.051344104951097e-01    
3.665000000000000e+10    -6.095625309103164e-01   6.613293657940782e-01    
3.670000000000000e+10    -5.555705088946480e-01   7.130553489130731e-01    
3.675000000000000e+10    -4.933123915547956e-01   7.597289366150468e-01    
3.680000000000000e+10    -4.275444538201482e-01   7.968738968324098e-01    
3.685000000000000e+10    -3.607932741514104e-01   8.208115294744186e-01    
3.690000000000000e+10    -2.978125157834692e-01   8.400501499235499e-01    
3.695000000000000e+10    -2.391131574540413e-01   8.603664147830674e-01    
3.700000000000000e+10    -1.800501447977710e-01   8.805516738534662e-01    
3.705000000000000e+10    -1.143396810244881e-01   8.956201718890354e-01    
3.710000000000000e+10    -4.164938086588859e-02   9.035847380274660e-01    
3.715000000000000e+10    3.113314013995620e-02    9.034200393409304e-01    
3.720000000000000e+10    9.951792061267963e-02    8.916296139373315e-01    
3.725000000000000e+10    1.579294803485435e-01    8.726565429907490e-01    
3.730000000000000e+10    2.155297540046877e-01    8.634403019908811e-01    
3.735000000000000e+10    2.817801626340940e-01    8.565773693590750e-01    
3.740000000000000e+10    3.504612448273337e-01    8.387128990651986e-01    
3.745000000000000e+10    4.162195628679583e-01    8.074338388180037e-01    
3.750000000000000e+10    4.795764404327081e-01    7.676210660882377e-01    
3.755000000000000e+10    5.325560725554837e-01    7.246836620452740e-01    
3.760000000000000e+10    5.743960335048821e-01    6.859431876413894e-01    
3.765000000000000e+10    6.231194056061755e-01    6.496814308908555e-01    
3.770000000000000e+10    6.785150126422266e-01    6.036767343810221e-01    
3.775000000000000e+10    7.288390237565052e-01    5.490893739309658e-01    
3.780000000000000e+10    7.689822758998663e-01    4.875625670421058e-01    
3.785000000000000e+10    7.909654152935047e-01    4.270196914998613e-01    
3.790000000000000e+10    8.329397727730049e-01    3.741216847441410e-01    
3.795000000000000e+10    8.596051129278421e-01    3.120695540677100e-01    
3.800000000000000e+10    8.838291029797989e-01    2.496058533287634e-01    
3.805000000000000e+10    9.034661679069742e-01    1.785756113059959e-01    
3.810000000000000e+10    9.171802818508641e-01    1.049695759948957e-01    
3.815000000000000e+10    9.255124066362380e-01    3.259876515410397e-02    
3.820000000000000e+10    9.249339799745917e-01    -3.827024784925537e-02   
3.825000000000000e+10    9.164061497733965e-01    -1.077195477704785e-01   
3.830000000000000e+10    9.076795509105520e-01    -1.755146833356052e-01   
3.835000000000000e+10    8.961415004122476e-01    -2.450827352533957e-01   
3.840000000000000e+10    8.763865179333340e-01    -3.152338199644106e-01   
3.845000000000000e+10    8.496607332437768e-01    -3.852709255485003e-01   
3.850000000000000e+10    8.170595915177774e-01    -4.523944718669720e-01   
3.855000000000000e+10    7.793755274474448e-01    -5.129105988889381e-01   
3.860000000000000e+10    7.386570412478843e-01    -5.693821359667423e-01   
3.865000000000000e+10    6.950363954752127e-01    -6.259430342291549e-01   
3.870000000000000e+10    6.451764830715179e-01    -6.801542709874420e-01   
3.875000000000000e+10    5.904271935308333e-01    -7.296647813031057e-01   
3.880000000000000e+10    5.323347548651527e-01    -7.740453462882910e-01   
3.885000000000000e+10    4.708261500480227e-01    -8.144494737466783e-01   
3.890000000000000e+10    4.054249009755613e-01    -8.483137850254933e-01   
3.895000000000000e+10    3.362404490725805e-01    -8.778735048984707e-01   
3.900000000000000e+10    2.671162917051204e-01    -9.035503994094221e-01   
3.905000000000000e+10    1.973324622483476e-01    -9.214952030685487e-01   
3.910000000000000e+10    1.244859270732158e-01    -9.319372346489103e-01   
3.915000000000000e+10    4.861759382761317e-02    -9.384251740808315e-01   
3.920000000000000e+10    -2.671531366514420e-02   -9.411199735787658e-01   
3.925000000000000e+10    -9.800525521603069e-02   -9.378973879767309e-01   
3.930000000000000e+10    -1.694111491071171e-01   -9.275570936239512e-01   
3.935000000000000e+10    -2.439613283412098e-01   -9.107023673480343e-01   
3.940000000000000e+10    -3.162174632482487e-01   -8.895962831383140e-01   
3.945000000000000e+10    -3.823203203900031e-01   -8.619030021793828e-01   
3.950000000000000e+10    -4.473850225494241e-01   -8.278835005436730e-01   
3.955000000000000e+10    -5.133781288858572e-01   -7.890932918284717e-01   
3.960000000000000e+10    -5.748687906716308e-01   -7.476734423655155e-01   
3.965000000000000e+10    -6.279590202430197e-01   -7.009344429533638e-01   
3.970000000000000e+10    -6.784286762567751e-01   -6.469299509693515e-01   
3.975000000000000e+10    -7.284591426379518e-01   -5.884667442060428e-01   
3.980000000000000e+10    -7.733745941360395e-01   -5.290685414812684e-01   
3.985000000000000e+10    -8.087976141998412e-01   -4.683352290552973e-01   
3.990000000000000e+10    -8.401124875023975e-01   -4.040507401105110e-01   
3.995000000000000e+10    -8.703949049473758e-01   -3.345803266955732e-01   
4.000000000000000e+10    -8.947640909070340e-01   -2.651719114894737e-01   
4.005000000000000e+10    -9.098557794356911e-01   -1.949998730421528e-01   
4.010000000000000e+10    -9.188079807360987e-01   -1.269723599741577e-01   
4.015000000000000e+10    -9.258654934813833e-01   -5.785359270737136e-02   
4.020000000000000e+10    -9.266812984187890e-01   1.482932089176452e-02    
4.025000000000000e+10    -9.219166944398753e-01   8.948961683461949e-02    
4.030000000000000e+10    -9.109662065426377e-01   1.624614513245331e-01    
4.035000000000000e+10    -8.965943010739365e-01   2.324505917576924e-01    
4.040000000000000e+10    -8.772369957529736e-01   2.993343277240044e-01    
4.045000000000000e+10    -8.508955072966033e-01   3.676881692440729e-01    
4.050000000000000e+10    -8.174728827275392e-01   4.358043539845463e-01    
4.055000000000000e+10    -7.790734552035450e-01   4.994678481432845e-01    
4.060000000000000e+10    -7.364241597097737e-01   5.599549916185770e-01    
4.065000000000000e+10    -6.897778085247019e-01   6.159784649163937e-01    
4.070000000000000e+10    -6.402282454163134e-01   6.667184180922722e-01    
4.075000000000000e+10    -5.824406265112171e-01   7.174831782926226e-01    
4.080000000000000e+10    -5.202024191895299e-01   7.643259758557885e-01    
4.085000000000000e+10    -4.577189938010486e-01   8.043672917977962e-01    
4.090000000000000e+10    -3.916396253982568e-01   8.376422439915805e-01    
4.095000000000000e+10    -3.211626771076780e-01   8.651342178416990e-01    
4.100000000000000e+10    -2.488922131795704e-01   8.883898770745405e-01    
4.105000000000000e+10    -1.759265923386355e-01   9.064870899645145e-01    
4.110000000000000e+10    -1.012653999322725e-01   9.170266929343033e-01    
4.115000000000000e+10    -2.271463363716720e-02   9.201538826986492e-01    
4.120000000000000e+10    5.807627371257457e-02    9.185981548223313e-01    
4.125000000000000e+10    1.345014011973422e-01    9.117633096492104e-01    
4.130000000000000e+10    2.091662074911192e-01    8.953133283246600e-01    
4.135000000000000e+10    2.822745397538693e-01    8.721930743160302e-01    
4.140000000000000e+10    3.566626802832251e-01    8.448417870379790e-01    
4.145000000000000e+10    4.284411412505606e-01    8.125991288057143e-01    
4.150000000000000e+10    4.944356580982534e-01    7.716585464996246e-01    
4.155000000000000e+10    5.587765920798758e-01    7.239961312896744e-01    
4.160000000000000e+10    6.183623661966064e-01    6.727065072050716e-01    
4.165000000000000e+10    6.734720255769402e-01    6.177280175406844e-01    
4.170000000000000e+10    7.204681611925372e-01    5.554602754745106e-01    
4.175000000000000e+10    7.650485499479854e-01    4.885291267973095e-01    
4.180000000000000e+10    8.058572946605995e-01    4.213822924709961e-01    
4.185000000000000e+10    8.391615950784346e-01    3.523315126213004e-01    
4.190000000000000e+10    8.631610541224328e-01    2.797313132979963e-01    
4.195000000000000e+10    8.818945885822399e-01    1.989015592302747e-01    
4.200000000000000e+10    8.961744110524693e-01    1.179694488915970e-01    
4.205000000000000e+10    9.035194290159754e-01    3.971399170302544e-02    
4.210000000000000e+10    9.025728463175663e-01    -3.958435112936907e-02   
4.215000000000000e+10    8.943611707477671e-01    -1.197107433039159e-01   
4.220000000000000e+10    8.788961746048958e-01    -1.973748737998501e-01   
4.225000000000000e+10    8.574468913391045e-01    -2.725743481058459e-01   
4.230000000000000e+10    8.289299284693070e-01    -3.476969583476185e-01   
4.235000000000000e+10    7.937942396225302e-01    -4.205344627496644e-01   
4.240000000000000e+10    7.526697168641946e-01    -4.884195514012987e-01   
4.245000000000000e+10    7.053297170102834e-01    -5.487557331164863e-01   
4.250000000000000e+10    6.515916967163849e-01    -6.086773688621336e-01   
4.255000000000000e+10    5.913286274928530e-01    -6.652350209165866e-01   
4.260000000000000e+10    5.261351547140267e-01    -7.134491465471606e-01   
4.265000000000000e+10    4.562672988560195e-01    -7.532152303535812e-01   
4.270000000000000e+10    3.819527167619978e-01    -7.834041107406615e-01   
4.275000000000000e+10    3.105692053084220e-01    -7.982615551164584e-01   
4.280000000000000e+10    2.544894728803327e-01    -8.114187675286173e-01   
4.285000000000000e+10    1.955721628491830e-01    -8.375127304717963e-01   
4.290000000000000e+10    1.239789391268543e-01    -8.595808307964052e-01   
4.295000000000000e+10    4.633159364190424e-02    -8.697991604525778e-01   

