! Rohde & Schwarz Vector Network Analyzer
! Rohde-Schwarz,ZNA43-4Port,1332450044102361,3.10
! 
! Port Assignments:
! Nominal Port -> Actual Test Port
! --------------------------------
!   1 -> 1

! Created: GMT 2026-06-01 14:58:13

# Hz S RI R 50

! freq[Hz]               S11[Re]                  S11[Im]                  
1.000000000000000e+07    9.863053210477711e-01    -1.195206808143668e-01   
2.249500000000000e+08    -3.718436946512080e-01   -6.430242685305284e-01   
4.399000000000000e+08    -6.424706107442441e-01   1.362234867609387e-01    
6.548500000000000e+08    -2.687814810320458e-01   5.566303048965946e-01    
8.698000000000000e+08    1.333058893403304e-01    5.938377774359538e-01    
1.084750000000000e+09    4.785639814978100e-01    4.612024953762322e-01    
1.299700000000000e+09    7.058125989856026e-01    1.100443400998896e-01    
1.514650000000000e+09    6.876651052244397e-01    -2.647349510433523e-01   
1.729600000000000e+09    4.605060178413833e-01    -6.074075858234366e-01   
1.944550000000000e+09    8.816932500824264e-02    -7.611708793511887e-01   
2.159500000000000e+09    -3.052099223461577e-01   -6.981333609088555e-01   
2.374450000000000e+09    -6.083859782667628e-01   -4.412185780531997e-01   
2.589400000000000e+09    -7.350234099227467e-01   -6.185295397078740e-02   
2.804350000000000e+09    -6.427583990267396e-01   3.305162153766056e-01    
3.019300000000000e+09    -3.541188636300912e-01   6.153810352077348e-01    
3.234250000000000e+09    4.284596721530304e-02    7.012131836229776e-01    
3.449200000000000e+09    4.244937133859275e-01    5.583191487084124e-01    
3.664150000000000e+09    6.663932734830128e-01    2.342408179457474e-01    
3.879100000000000e+09    6.977615624560825e-01    -1.614716254296727e-01   
4.094050000000000e+09    5.210399790512776e-01    -5.091654801651740e-01   
4.309000000000000e+09    1.992622584763712e-01    -7.093293782010034e-01   
4.523950000000000e+09    -1.688891391385222e-01   -7.262895780829631e-01   
4.738900000000000e+09    -4.940679431382500e-01   -5.635903024212949e-01   
4.953850000000000e+09    -6.976806683227561e-01   -2.708427539393855e-01   
5.168800000000000e+09    -7.377728484777408e-01   7.890345042562757e-02    
5.383750000000000e+09    -6.074152969506225e-01   4.055849009956517e-01    
5.598700000000000e+09    -3.356356522963025e-01   6.304016384504709e-01    
5.813650000000000e+09    1.408191285379357e-02    6.940928651921723e-01    
6.028600000000000e+09    3.514254518869790e-01    5.723465611950204e-01    
6.243550000000000e+09    5.795117126588158e-01    2.911020568589031e-01    
6.458500000000000e+09    6.228471237358318e-01    -7.043958132575888e-02   
6.673450000000000e+09    4.627476433679521e-01    -3.933692024754967e-01   
6.888400000000000e+09    1.636881812297969e-01    -5.725751681728756e-01   
7.103350000000000e+09    -1.738569649087257e-01   -5.583357387714528e-01   
7.318300000000000e+09    -4.282311572694026e-01   -3.794743360515491e-01   
7.533250000000000e+09    -5.496522604759003e-01   -1.298118685733573e-01   
7.748200000000000e+09    -5.596278949182020e-01   1.257992492750930e-01    
7.963150000000000e+09    -4.714628041139148e-01   3.725182134757527e-01    
8.178100000000000e+09    -2.681612671366410e-01   5.721972243281727e-01    
8.393050000000000e+09    2.520310275548996e-02    6.537226275441920e-01    
8.608000000000000e+09    3.326055617029296e-01    5.755387203042389e-01    
8.822950000000000e+09    5.655353843737115e-01    3.498093717238877e-01    
9.037900000000000e+09    6.571402814118318e-01    3.148967895997078e-02    
9.252850000000000e+09    5.742236233499525e-01    -2.949295570101715e-01   
9.467800000000000e+09    3.312385436096854e-01    -5.357814082905753e-01   
9.682750000000000e+09    3.656501218484066e-03    -6.164816605156509e-01   
9.897700000000000e+09    -3.311689449614326e-01   -5.240623225227047e-01   
1.011265000000000e+10    -5.679784840621241e-01   -2.591835703109929e-01   
1.032760000000000e+10    -6.279310649542585e-01   8.916236007134409e-02    
1.054255000000000e+10    -4.997647530622947e-01   4.126793888946902e-01    
1.075750000000000e+10    -2.306187481830672e-01   6.229979957820884e-01    
1.097245000000000e+10    9.992375979836347e-02    6.709128362016776e-01    
1.118740000000000e+10    4.061178288076319e-01    5.565103727529382e-01    
1.140235000000000e+10    6.180061608305668e-01    3.165731045243367e-01    
1.161730000000000e+10    6.930564872931063e-01    1.141074496082534e-02    
1.183225000000000e+10    6.200462165072756e-01    -2.889128775621906e-01   
1.204720000000000e+10    4.220250539596752e-01    -5.155025195437900e-01   
1.226215000000000e+10    1.526370424879669e-01    -6.335400815401871e-01   
1.247710000000000e+10    -1.514385214307106e-01   -6.114298800942232e-01   
1.269205000000000e+10    -4.005308850497470e-01   -4.435256310594611e-01   
1.290700000000000e+10    -5.344496052769560e-01   -1.839680546554625e-01   
1.312195000000000e+10    -5.310148181616986e-01   1.018030412988833e-01    
1.333690000000000e+10    -3.931116676227026e-01   3.526771499069730e-01    
1.355185000000000e+10    -1.453967626949771e-01   5.074921352128345e-01    
1.376680000000000e+10    1.535783868096072e-01    5.160186871350186e-01    
1.398175000000000e+10    4.174597025870309e-01    3.676255004963757e-01    
1.419670000000000e+10    5.684139077652641e-01    1.062281075601967e-01    
1.441165000000000e+10    5.680843609265874e-01    -1.923891828110895e-01   
1.462660000000000e+10    4.258655748386256e-01    -4.491104441612990e-01   
1.484155000000000e+10    1.830814917058445e-01    -6.094980452817997e-01   
1.505650000000000e+10    -1.077143941453584e-01   -6.380420806448306e-01   
1.527145000000000e+10    -3.744711986654325e-01   -5.294456676927045e-01   
1.548640000000000e+10    -5.606054931794325e-01   -3.132432488740677e-01   
1.570135000000000e+10    -6.278487596555846e-01   -3.782901254853075e-02   
1.591630000000000e+10    -5.611615201871419e-01   2.381523473229790e-01    
1.613125000000000e+10    -3.729458576504763e-01   4.524026357504365e-01    
1.634620000000000e+10    -1.012346103676061e-01   5.512817134403499e-01    
1.656115000000000e+10    1.878992565047209e-01    5.021803989593134e-01    
1.677610000000000e+10    4.153803032490743e-01    3.101369513863434e-01    
1.699105000000000e+10    5.112002662821415e-01    2.431164976419062e-02    
1.720600000000000e+10    4.421600784702519e-01    -2.705942120072822e-01   
1.742095000000000e+10    2.299684026085625e-01    -4.845386653119021e-01   
1.763590000000000e+10    -5.821860468645632e-02   -5.574254789794244e-01   
1.785085000000000e+10    -3.374578568201513e-01   -4.793068499563965e-01   
1.806580000000000e+10    -5.401588730781314e-01   -2.832967937588669e-01   
1.828075000000000e+10    -6.298726834504875e-01   -2.372644283868941e-02   
1.849570000000000e+10    -5.952932921861289e-01   2.456193938033416e-01    
1.871065000000000e+10    -4.485322089876445e-01   4.696314586671628e-01    
1.892560000000000e+10    -2.227220881787144e-01   6.068621217487931e-01    
1.914055000000000e+10    3.918249755393147e-02    6.337713456466267e-01    
1.935550000000000e+10    2.875576103772441e-01    5.446641561468077e-01    
1.957045000000000e+10    4.711742256487408e-01    3.518275973997013e-01    
1.978540000000000e+10    5.458378154732005e-01    9.147165973018535e-02    
2.000035000000000e+10    4.808139368575216e-01    -1.780796868046019e-01   
2.021530000000000e+10    2.814198542472608e-01    -3.774043600183644e-01   
2.043025000000000e+10    4.183142106262590e-03    -4.365416998391052e-01   
2.064520000000000e+10    -2.559132080308634e-01   -3.316982867792159e-01   
2.086015000000000e+10    -4.099017314638073e-01   -1.066584203207927e-01   
2.107510000000000e+10    -4.207899228382578e-01   1.624805459083487e-01    
2.129005000000000e+10    -2.829344331574698e-01   3.960403855191837e-01    
2.150500000000000e+10    -4.580415224207866e-02   5.158297631435012e-01    
2.171995000000000e+10    2.105698562428384e-01    4.985977798815428e-01    
2.193490000000000e+10    4.189300853206834e-01    3.623016904820420e-01    
2.214985000000000e+10    5.367988731570540e-01    1.490007073888399e-01    
2.236480000000000e+10    5.416850466709526e-01    -9.012742224009948e-02   
2.257975000000000e+10    4.364934312796703e-01    -2.992165906911741e-01   
2.279470000000000e+10    2.525988430132083e-01    -4.286307696314473e-01   
2.300965000000000e+10    3.761342293258689e-02    -4.565571205313227e-01   
2.322460000000000e+10    -1.582478030223048e-01   -3.802918327232476e-01   
2.343955000000000e+10    -2.793743994321398e-01   -2.263762518853984e-01   
2.365450000000000e+10    -3.052707725941326e-01   -5.484547658030640e-02   
2.386945000000000e+10    -2.639882023145793e-01   9.135969181647415e-02    
2.408440000000000e+10    -1.775591921699698e-01   2.129773136627718e-01    
2.429935000000000e+10    -2.903231652309781e-02   2.986194886322946e-01    
2.451430000000000e+10    1.593775524360807e-01    2.913198286796361e-01    
2.472925000000000e+10    3.127747345606534e-01    1.919366563551421e-01    
2.494420000000000e+10    4.233164261447486e-01    3.263178976803199e-02    
2.515915000000000e+10    4.453853957542808e-01    -1.852189484622279e-01   
2.537410000000000e+10    3.531832649700633e-01    -3.940612751800915e-01   
2.558905000000000e+10    1.735852393372025e-01    -5.383589613247244e-01   
2.580400000000000e+10    -4.972827946364396e-02   -5.895601303132856e-01   
2.601895000000000e+10    -2.727780014184669e-01   -5.458704494770044e-01   
2.623390000000000e+10    -4.575159532834283e-01   -4.187500555406662e-01   
2.644885000000000e+10    -5.777356619624244e-01   -2.317248939583109e-01   
2.666380000000000e+10    -6.169600619275727e-01   -1.452690351592587e-02   
2.687875000000000e+10    -5.712427392901533e-01   2.004097052999235e-01    
2.709370000000000e+10    -4.410409339827230e-01   3.830913203369847e-01    
2.730865000000000e+10    -2.434833620161627e-01   4.930647789743870e-01    
2.752360000000000e+10    -1.278589176789797e-02   4.994597256154293e-01    
2.773855000000000e+10    1.905781919249128e-01    3.879926358356992e-01    
2.795350000000000e+10    2.999055309390274e-01    1.826196166611881e-01    
2.816845000000000e+10    2.645494858780539e-01    -4.475157553814572e-02   
2.838340000000000e+10    9.576536669520898e-02    -1.941332164711850e-01   
2.859835000000000e+10    -1.213352374206959e-01   -1.958920996728725e-01   
2.881330000000000e+10    -2.811731578776787e-01   -6.155804747997827e-02   
2.902825000000000e+10    -3.233025611656197e-01   1.350392040839410e-01    
2.924320000000000e+10    -2.465974051580366e-01   3.154671501442054e-01    
2.945815000000000e+10    -8.526494108434991e-02   4.250934071911345e-01    
2.967310000000000e+10    1.121148332470080e-01    4.320902028010314e-01    
2.988805000000000e+10    2.847756809691012e-01    3.343237419699522e-01    
3.010300000000000e+10    3.801002812278402e-01    1.566771189957293e-01    
3.031795000000000e+10    3.600137945517216e-01    -4.593086142828785e-02   
3.053290000000000e+10    2.256434071592812e-01    -1.998875877489020e-01   
3.074785000000000e+10    2.727276698594524e-02    -2.421124560138202e-01   
3.096280000000000e+10    -1.517334859193157e-01   -1.576551825832206e-01   
3.117775000000000e+10    -2.442269000065048e-01   9.998908545302039e-03    
3.139270000000000e+10    -2.291326970757879e-01   1.971740120262409e-01    
3.160765000000000e+10    -1.201934100129904e-01   3.468917603857289e-01    
3.182260000000000e+10    4.345742083342757e-02    4.253863067516588e-01    
3.203755000000000e+10    2.226831864476099e-01    4.239286006918740e-01    
3.225250000000000e+10    3.854847771198552e-01    3.509442946224313e-01    
3.246745000000000e+10    5.059872115611534e-01    2.232671470485691e-01    
3.268240000000000e+10    5.766284927809774e-01    6.360493733161277e-02    
3.289735000000000e+10    5.886957493122296e-01    -1.127619058768883e-01   
3.311230000000000e+10    5.400290191727484e-01    -2.829837881294350e-01   
3.332725000000000e+10    4.381400113040503e-01    -4.278348040475382e-01   
3.354220000000000e+10    2.951020617490799e-01    -5.316357743643565e-01   
3.375715000000000e+10    1.264873444854059e-01    -5.822314621319541e-01   
3.397210000000000e+10    -4.727790719806988e-02   -5.718314119992615e-01   
3.418705000000000e+10    -2.017771006674555e-01   -5.066373058737047e-01   
3.440200000000000e+10    -3.202483600501753e-01   -3.968163658728666e-01   
3.461695000000000e+10    -3.945100666345341e-01   -2.600712712803656e-01   
3.483190000000000e+10    -4.198633382580932e-01   -1.074270960468580e-01   
3.504685000000000e+10    -3.836937604402274e-01   4.895190906479530e-02    
3.526180000000000e+10    -2.778024615299122e-01   1.728607810163604e-01    
3.547675000000000e+10    -1.300170002836543e-01   2.247466860200860e-01    
3.569170000000000e+10    1.241544396566085e-02    1.965595148299147e-01    
3.590665000000000e+10    1.076779331383259e-01    1.060080855704478e-01    
3.612160000000000e+10    1.368105220676732e-01    -3.936411963732617e-03   
3.633655000000000e+10    1.124741976814176e-01    -9.766373263791718e-02   
3.655150000000000e+10    5.854733262465862e-02    -1.625018466894646e-01   
3.676645000000000e+10    -8.374337759172849e-03   -1.967112420329017e-01   
3.698140000000000e+10    -7.487791953413493e-02   -2.056407145235031e-01   
3.719635000000000e+10    -1.389801596570018e-01   -1.951889310571010e-01   
3.741130000000000e+10    -1.954113357963088e-01   -1.647870418240885e-01   
3.762625000000000e+10    -2.315645148700607e-01   -1.238767939529754e-01   
3.784120000000000e+10    -2.576216843936727e-01   -8.984507828805897e-02   
3.805615000000000e+10    -2.907621712031597e-01   -5.694576158721439e-02   
3.827110000000000e+10    -3.293384548858452e-01   -7.526367473842035e-03   
3.848605000000000e+10    -3.582282172468674e-01   6.140355768133057e-02    
3.870100000000000e+10    -3.734816513230387e-01   1.449155132385581e-01    
3.891595000000000e+10    -3.668875072586267e-01   2.479340467241496e-01    
3.913090000000000e+10    -3.199423745966030e-01   3.609242112057263e-01    
3.934585000000000e+10    -2.245812573981723e-01   4.607776461217586e-01    
3.956080000000000e+10    -9.046337740034542e-02   5.214059983732364e-01    
3.977575000000000e+10    6.066074368167174e-02    5.290646041610656e-01    
3.999070000000000e+10    2.040178708499777e-01    4.815623661544570e-01    
4.020565000000000e+10    3.132848053792059e-01    3.920099687597653e-01    
4.042060000000000e+10    3.834735690144122e-01    2.800061519921924e-01    
4.063555000000000e+10    4.174911809430945e-01    1.646097632211766e-01    
4.085050000000000e+10    4.226598448694705e-01    4.707427204231444e-02    
4.106545000000000e+10    3.983629421235086e-01    -7.002459292991930e-02   
4.128040000000000e+10    3.359235235861448e-01    -1.840131330174506e-01   
4.149535000000000e+10    2.271828805442627e-01    -2.751439014791187e-01   
4.171030000000000e+10    7.801726392831718e-02    -3.158396908315441e-01   
4.192525000000000e+10    -7.771968773711457e-02   -2.797139829338953e-01   
4.214020000000000e+10    -2.018633981657232e-01   -1.706016509793394e-01   
4.235515000000000e+10    -2.586685071567628e-01   -1.315241855239077e-02   
4.257010000000000e+10    -2.311904259435643e-01   1.535507551921997e-01    
4.278505000000000e+10    -1.242074948813371e-01   2.890127442115237e-01    
4.300000000000000e+10    3.474789009623847e-02    3.596470607681904e-01    

